NAME : S-G-200-13.1972.tour
COMMENT : Length = 1972
COMMENT : Found by LKH [Keld Helsgaun] Thu May 17 23:18:21 2018
TYPE : TOUR
DIMENSION : 31
TOUR_SECTION
1
17
15
11
4
6
25
19
9
12
10
8
14
27
18
24
30
22
21
31
29
26
2
7
13
5
16
3
28
23
20
-1
EOF
